NAME : mr54
COMMENT : 54-city problem (DISC)
TYPE : TSP
DIMENSION : 54
EDGE_WEIGHT_TYPE : EUC_2D
NODE_COORD_SECTION
1 43 89
2 37 66
3 19 5
4 52 64
5 1 72
6 97 46
7 81 68
8 76 80
9 68 20
10 3 17
11 40 1
12 41 76
13 19 82
14 77 5
15 62 8
16 93 81
17 33 77
18 26 78
19 73 37
20 100 43
21 31 68
22 18 18
23 18 61
24 17 40
25 59 83
26 48 72
27 47 4
28 24 41
29 86 48
30 48 29
31 6 21
32 100 13
33 20 22
34 72 1
35 82 21
36 48 70
37 27 59
38 45 100
39 21 27
40 48 40
41 24 79
42 17 72
43 22 24
44 17 29
45 95 28
46 63 14
47 73 55
48 88 96
49 95 51
50 13 10
51 89 66
52 10 51
53 79 34
54 66 62
EOF
